
Presolve eliminates 4164058 constraints and 4156974 variables.
Adjusted problem:
1837010 variables:
	1825303 binary variables
	11707 linear variables
1853897 constraints, all linear; 14537311 nonzeros
	23925 equality constraints
	1829972 inequality constraints
1 linear objective; 1813596 nonzeros.

Gurobi 9.1.2: mipgap 0.01
outlev 1
timelim 3600
Gurobi Optimizer version 9.1.2 build v9.1.2rc0 (linux64)
Thread count: 4 physical cores, 4 logical processors, using up to 4 threads
Optimize a model with 1853897 rows, 1837010 columns and 14537311 nonzeros
Model fingerprint: 0x9b5ae7ac
Variable types: 11707 continuous, 1825303 integer (1825303 binary)
Coefficient statistics:
  Matrix range     [4e-02, 1e+02]
  Objective range  [4e+01, 2e+04]
  Bounds range     [1e+00, 1e+02]
  RHS range        [1e+00, 1e+02]
Presolve removed 0 rows and 0 columns (presolve time = 7s) ...
Presolve removed 0 rows and 0 columns (presolve time = 27s) ...
Presolve removed 0 rows and 0 columns (presolve time = 30s) ...
Presolve removed 0 rows and 0 columns (presolve time = 40s) ...
Presolve removed 0 rows and 0 columns (presolve time = 45s) ...
Presolve removed 0 rows and 0 columns (presolve time = 50s) ...
Presolve removed 0 rows and 0 columns (presolve time = 55s) ...
Presolve removed 0 rows and 0 columns (presolve time = 60s) ...
Presolve removed 23414 rows and 0 columns (presolve time = 66s) ...
Presolve removed 23414 rows and 0 columns (presolve time = 78s) ...
Presolve removed 23414 rows and 0 columns (presolve time = 86s) ...
Presolve removed 23414 rows and 0 columns (presolve time = 108s) ...
Presolve removed 23414 rows and 0 columns (presolve time = 120s) ...
Presolve removed 23414 rows and 0 columns
Presolve time: 120.14s
Presolved: 1830483 rows, 1837010 columns, 9118856 nonzeros
Variable types: 11707 continuous, 1825303 integer (1825303 binary)

Deterministic concurrent LP optimizer: primal simplex, dual simplex, and barrier
Showing barrier log only...

Root barrier log...

Elapsed ordering time = 73s
Elapsed ordering time = 75s
Elapsed ordering time = 80s
Elapsed ordering time = 85s
Elapsed ordering time = 90s
Elapsed ordering time = 95s
Elapsed ordering time = 100s
Elapsed ordering time = 105s
Elapsed ordering time = 110s
Elapsed ordering time = 115s
Elapsed ordering time = 120s
Elapsed ordering time = 125s
Elapsed ordering time = 130s
Elapsed ordering time = 138s
Elapsed ordering time = 140s
Elapsed ordering time = 145s
Elapsed ordering time = 150s
Elapsed ordering time = 155s
Elapsed ordering time = 160s
Elapsed ordering time = 165s
Elapsed ordering time = 170s
Elapsed ordering time = 175s
Elapsed ordering time = 180s
Elapsed ordering time = 185s
Elapsed ordering time = 190s
Elapsed ordering time = 195s
Elapsed ordering time = 200s
Elapsed ordering time = 205s
Elapsed ordering time = 210s
Elapsed ordering time = 215s
Elapsed ordering time = 220s
Elapsed ordering time = 225s
Elapsed ordering time = 230s
Elapsed ordering time = 235s
Elapsed ordering time = 240s
Elapsed ordering time = 245s
Elapsed ordering time = 250s
Elapsed ordering time = 255s
Elapsed ordering time = 260s
Elapsed ordering time = 265s
Elapsed ordering time = 270s
Elapsed ordering time = 275s
Elapsed ordering time = 280s
Elapsed ordering time = 285s
Elapsed ordering time = 290s
Elapsed ordering time = 295s
Elapsed ordering time = 300s
Elapsed ordering time = 305s
Elapsed ordering time = 310s
Elapsed ordering time = 315s
Elapsed ordering time = 320s
Elapsed ordering time = 325s
Elapsed ordering time = 330s
Elapsed ordering time = 335s
Elapsed ordering time = 340s
Elapsed ordering time = 345s
Elapsed ordering time = 350s
Elapsed ordering time = 355s
Elapsed ordering time = 360s
Elapsed ordering time = 365s
Elapsed ordering time = 370s
Elapsed ordering time = 375s
Elapsed ordering time = 380s
Elapsed ordering time = 385s
Elapsed ordering time = 390s
Elapsed ordering time = 395s
Elapsed ordering time = 400s
Elapsed ordering time = 405s
Elapsed ordering time = 410s
Elapsed ordering time = 415s
Elapsed ordering time = 420s
Elapsed ordering time = 425s
Elapsed ordering time = 430s
Elapsed ordering time = 435s
Elapsed ordering time = 440s
Elapsed ordering time = 445s
Elapsed ordering time = 450s
Elapsed ordering time = 455s
Elapsed ordering time = 460s
Elapsed ordering time = 465s
Elapsed ordering time = 470s
Elapsed ordering time = 475s
Elapsed ordering time = 480s
Elapsed ordering time = 485s
Elapsed ordering time = 490s
Elapsed ordering time = 495s
Elapsed ordering time = 500s
Elapsed ordering time = 505s
Elapsed ordering time = 510s
Elapsed ordering time = 515s
Elapsed ordering time = 520s
Elapsed ordering time = 525s
Elapsed ordering time = 530s
Elapsed ordering time = 535s
Elapsed ordering time = 540s
Elapsed ordering time = 545s
Elapsed ordering time = 550s
Elapsed ordering time = 555s
Elapsed ordering time = 560s
Elapsed ordering time = 565s
Elapsed ordering time = 570s
Elapsed ordering time = 575s
Elapsed ordering time = 580s
Elapsed ordering time = 585s
Elapsed ordering time = 590s
Elapsed ordering time = 595s
Elapsed ordering time = 600s
Elapsed ordering time = 605s
Elapsed ordering time = 610s
Elapsed ordering time = 615s
Elapsed ordering time = 620s
Elapsed ordering time = 625s
Elapsed ordering time = 630s
Elapsed ordering time = 635s
Elapsed ordering time = 640s
Elapsed ordering time = 645s
Elapsed ordering time = 857s
Elapsed ordering time = 1279s
Elapsed ordering time = 1284s
Elapsed ordering time = 1290s
Elapsed ordering time = 1296s
Elapsed ordering time = 1303s
Elapsed ordering time = 1308s
Elapsed ordering time = 1314s
Elapsed ordering time = 1320s
Elapsed ordering time = 1326s
Elapsed ordering time = 1333s
Elapsed ordering time = 1339s
Elapsed ordering time = 1345s
Elapsed ordering time = 1351s
Elapsed ordering time = 1358s
Elapsed ordering time = 1365s
Elapsed ordering time = 1371s
Elapsed ordering time = 1377s
Elapsed ordering time = 1383s
Elapsed ordering time = 1389s
Elapsed ordering time = 1395s
Elapsed ordering time = 1401s
Elapsed ordering time = 1407s
Elapsed ordering time = 1414s
Elapsed ordering time = 1427s
Elapsed ordering time = 1433s
Elapsed ordering time = 1435s
Elapsed ordering time = 1441s
Elapsed ordering time = 1447s
Elapsed ordering time = 1450s
Elapsed ordering time = 1457s
Elapsed ordering time = 1463s
Elapsed ordering time = 1466s
Elapsed ordering time = 1471s
Elapsed ordering time = 1477s
Elapsed ordering time = 1480s
Elapsed ordering time = 1486s
Elapsed ordering time = 1493s
Elapsed ordering time = 1501s
Elapsed ordering time = 1505s
Elapsed ordering time = 1511s
Elapsed ordering time = 1516s
Elapsed ordering time = 1521s
Elapsed ordering time = 1525s
Elapsed ordering time = 1531s
Elapsed ordering time = 1537s
Elapsed ordering time = 1543s
Elapsed ordering time = 1545s
Elapsed ordering time = 1551s
Elapsed ordering time = 1597s
Elapsed ordering time = 1600s
Elapsed ordering time = 1605s
Elapsed ordering time = 1610s
Elapsed ordering time = 1617s
Elapsed ordering time = 1620s
Elapsed ordering time = 1625s
Elapsed ordering time = 1630s
Elapsed ordering time = 1635s
Elapsed ordering time = 1640s
Elapsed ordering time = 1645s
Elapsed ordering time = 1650s
Elapsed ordering time = 1655s
Elapsed ordering time = 1660s
Elapsed ordering time = 1665s
Elapsed ordering time = 1670s
Elapsed ordering time = 1675s
Elapsed ordering time = 1680s
Elapsed ordering time = 1685s
Elapsed ordering time = 1690s
Elapsed ordering time = 1695s
Elapsed ordering time = 1700s
Elapsed ordering time = 1705s
Elapsed ordering time = 1710s
Elapsed ordering time = 1715s
Elapsed ordering time = 1720s
Elapsed ordering time = 1725s
Elapsed ordering time = 1730s
Elapsed ordering time = 1735s
Elapsed ordering time = 1740s
Elapsed ordering time = 1745s
Elapsed ordering time = 1750s
Elapsed ordering time = 1755s
Elapsed ordering time = 1760s
Elapsed ordering time = 1765s
Elapsed ordering time = 1770s
Elapsed ordering time = 1775s
Elapsed ordering time = 1780s
Elapsed ordering time = 1785s
Elapsed ordering time = 1790s
Elapsed ordering time = 1795s
Elapsed ordering time = 1800s
Elapsed ordering time = 1805s
Elapsed ordering time = 1810s
Elapsed ordering time = 1815s
Elapsed ordering time = 1820s
Elapsed ordering time = 1825s
Elapsed ordering time = 1830s
Elapsed ordering time = 1835s
Elapsed ordering time = 1840s
Elapsed ordering time = 1845s
Elapsed ordering time = 1850s
Elapsed ordering time = 1855s
Elapsed ordering time = 1860s
Elapsed ordering time = 1865s
Elapsed ordering time = 1870s
Elapsed ordering time = 1875s
Elapsed ordering time = 1880s
Elapsed ordering time = 1885s
Elapsed ordering time = 1890s
Elapsed ordering time = 1895s
Elapsed ordering time = 1900s
Elapsed ordering time = 1905s
Elapsed ordering time = 1910s
Elapsed ordering time = 1915s
Elapsed ordering time = 1920s
Elapsed ordering time = 1925s
Elapsed ordering time = 1930s
Elapsed ordering time = 1935s
Elapsed ordering time = 1940s
Elapsed ordering time = 1945s
Elapsed ordering time = 1950s
Elapsed ordering time = 1955s
Elapsed ordering time = 1960s
Elapsed ordering time = 1965s
Elapsed ordering time = 1970s
Elapsed ordering time = 1975s
Elapsed ordering time = 1980s
Elapsed ordering time = 1985s
Elapsed ordering time = 1990s
Elapsed ordering time = 1995s
Elapsed ordering time = 2000s
Elapsed ordering time = 2005s
Elapsed ordering time = 2010s
Elapsed ordering time = 2015s
Elapsed ordering time = 2020s
Elapsed ordering time = 2025s
Elapsed ordering time = 2030s
Elapsed ordering time = 2035s
Elapsed ordering time = 2040s
Elapsed ordering time = 2045s
Elapsed ordering time = 2050s
Elapsed ordering time = 2055s
Elapsed ordering time = 2060s
Elapsed ordering time = 2065s
Elapsed ordering time = 2070s
Elapsed ordering time = 2077s
Elapsed ordering time = 2080s
Elapsed ordering time = 2085s
Elapsed ordering time = 2090s
Elapsed ordering time = 2095s
Elapsed ordering time = 2332s
Elapsed ordering time = 2535s
Elapsed ordering time = 2541s
Elapsed ordering time = 2547s
Elapsed ordering time = 2553s
Elapsed ordering time = 2560s
Elapsed ordering time = 2566s
Elapsed ordering time = 2573s
Elapsed ordering time = 2580s
Elapsed ordering time = 2585s
Elapsed ordering time = 2592s
Elapsed ordering time = 2599s
Elapsed ordering time = 2608s
Elapsed ordering time = 2614s
Elapsed ordering time = 2620s
Elapsed ordering time = 2626s
Elapsed ordering time = 2631s
Elapsed ordering time = 2637s
Elapsed ordering time = 2644s
Elapsed ordering time = 2648s
Elapsed ordering time = 2654s
Elapsed ordering time = 2660s
Elapsed ordering time = 2665s
Elapsed ordering time = 2671s
Elapsed ordering time = 2683s
Elapsed ordering time = 2686s
Elapsed ordering time = 2692s
Elapsed ordering time = 2696s
Elapsed ordering time = 2702s
Elapsed ordering time = 2707s
Elapsed ordering time = 2713s
Elapsed ordering time = 2716s
Elapsed ordering time = 2722s
Elapsed ordering time = 2725s
Elapsed ordering time = 2731s
Elapsed ordering time = 2738s
Elapsed ordering time = 2741s
Elapsed ordering time = 2746s
Elapsed ordering time = 2757s
Elapsed ordering time = 2760s
Elapsed ordering time = 2766s
Elapsed ordering time = 2771s
Elapsed ordering time = 2776s
Elapsed ordering time = 2782s
Elapsed ordering time = 2786s
Elapsed ordering time = 2790s
Elapsed ordering time = 2796s
Elapsed ordering time = 2801s
Elapsed ordering time = 2829s
Elapsed ordering time = 2830s
Elapsed ordering time = 2835s
Elapsed ordering time = 2840s
Elapsed ordering time = 2845s
Elapsed ordering time = 2850s
Elapsed ordering time = 2855s
Elapsed ordering time = 2860s
Elapsed ordering time = 2865s
Elapsed ordering time = 2870s
Elapsed ordering time = 2875s
Elapsed ordering time = 2880s
Elapsed ordering time = 2886s
Elapsed ordering time = 2890s
Elapsed ordering time = 2895s
Elapsed ordering time = 2900s
Elapsed ordering time = 2905s
Elapsed ordering time = 2910s
Elapsed ordering time = 2915s
Elapsed ordering time = 2920s
Elapsed ordering time = 2925s
Elapsed ordering time = 2930s
Elapsed ordering time = 2935s
Elapsed ordering time = 2940s
Elapsed ordering time = 2945s
Elapsed ordering time = 2950s
Elapsed ordering time = 2955s
Elapsed ordering time = 2960s
Elapsed ordering time = 2965s
Elapsed ordering time = 2970s
Elapsed ordering time = 2975s
Elapsed ordering time = 2980s
Elapsed ordering time = 2985s
Elapsed ordering time = 2990s
Elapsed ordering time = 2995s
Elapsed ordering time = 3000s
Elapsed ordering time = 3005s
Elapsed ordering time = 3010s
Elapsed ordering time = 3015s
Elapsed ordering time = 3020s
Elapsed ordering time = 3025s
Elapsed ordering time = 3030s
Elapsed ordering time = 3035s
Elapsed ordering time = 3040s
Elapsed ordering time = 3045s
Elapsed ordering time = 3050s
Elapsed ordering time = 3055s
Elapsed ordering time = 3060s
Elapsed ordering time = 3065s
Elapsed ordering time = 3070s
Elapsed ordering time = 3075s
Elapsed ordering time = 3080s
Elapsed ordering time = 3085s
Elapsed ordering time = 3090s
Elapsed ordering time = 3095s
Elapsed ordering time = 3100s
Elapsed ordering time = 3105s
Elapsed ordering time = 3110s
Elapsed ordering time = 3115s
Elapsed ordering time = 3120s
Elapsed ordering time = 3125s
Elapsed ordering time = 3130s
Elapsed ordering time = 3135s
Elapsed ordering time = 3140s
Elapsed ordering time = 3145s
Elapsed ordering time = 3389s
Elapsed ordering time = 3563s
Elapsed ordering time = 3740s
Ordering time: 3739.82s

Barrier performed 0 iterations in 4194.76 seconds
Time limit reached



Root relaxation: time limit, 0 iterations, 3919.08 seconds

Explored 0 nodes (0 simplex iterations) in 4202.43 seconds
Thread count was 4 (of 4 available processors)

Solution count 0

Time limit reached
Best objective -, best bound 0.000000000000e+00, gap -
Gurobi 9.1.2: time limit without a feasible solution
No basis.
No primal or dual variables returned.
sum{(i,j) in Arcs, k in K: i != j} c[i,j]*x[i,j,k] + sum{(i,j) in Arcs, 
  k in K} cto[i,j]*x[i,j,k] = 0

sum{(i,j) in Arcs, k in K: i != j} c[i,j]*x[i,j,k] = 0

sum{(i,j) in Arcs, k in K: i != j} cto[i,j]*x[i,j,k] = 0

COST = 0

